* ENCODING=ISO-8859-1
NAME          CPLEX
ROWS
 N  obj1    
 G  c1      
 G  c2      
 G  c3      
 G  c4      
 G  c5      
 G  c6      
 G  c7      
 G  c8      
 G  c9      
 G  c10     
 G  c11     
 G  c12     
 G  c13     
 G  c14     
 G  c15     
 G  c16     
 G  c17     
 G  c18     
 G  c19     
 G  c20     
 G  c21     
 G  c22     
 G  c23     
 G  c24     
 G  c25     
 G  c26     
 G  c27     
 G  c28     
 G  c29     
 G  c30     
 G  c31     
 G  c32     
 G  c33     
 G  c34     
 G  c35     
 G  c36     
 G  c37     
 G  c38     
 G  c39     
 G  c40     
COLUMNS
    MARK0000  'MARKER'                 'INTORG'
    x1        obj1                            1
    x1        c22                           721
    x1        c27                           683
    x1        c36                           278
    x2        obj1                            1
    x2        c1                            271
    x2        c19                           403
    x2        c21                           894
    x2        c31                           183
    x2        c36                           862
    x3        obj1                            1
    x3        c19                           532
    x3        c33                           984
    x3        c34                           229
    x3        c36                           518
    x3        c37                           328
    x4        obj1                            1
    x4        c7                            371
    x4        c18                           818
    x4        c23                           563
    x4        c28                           499
    x4        c36                           652
    x5        obj1                            1
    x5        c19                           571
    x5        c22                           622
    x5        c26                           347
    x6        obj1                            1
    x6        c8                            786
    x6        c33                           978
    x6        c35                           797
    x6        c37                           988
    x7        obj1                            1
    x7        c20                           421
    x7        c29                           950
    x7        c31                           603
    x7        c40                           694
    x8        obj1                            1
    x8        c12                           513
    x8        c13                           887
    x8        c17                           184
    x8        c22                           790
    x8        c24                           232
    x8        c30                           899
    x9        obj1                            1
    x9        c4                            359
    x9        c15                           604
    x9        c23                           406
    x9        c35                           736
    x10       obj1                            1
    x10       c25                           664
    x10       c32                           720
    x10       c36                           243
    x11       obj1                            1
    x11       c2                            659
    x11       c18                           555
    x11       c27                           444
    x11       c29                           306
    x11       c33                           805
    x11       c37                           918
    x12       obj1                            1
    x12       c9                            639
    x12       c15                           153
    x12       c16                           264
    x12       c17                           169
    x12       c21                           225
    x13       obj1                            1
    x13       c5                            697
    x13       c6                            410
    x13       c24                           957
    x14       obj1                            1
    x14       c1                            663
    x14       c10                           810
    x14       c16                           200
    x14       c20                           384
    x14       c29                           124
    x15       obj1                            1
    x15       c1                            950
    x15       c2                            923
    x15       c7                            263
    x15       c11                           417
    x15       c14                           787
    x15       c19                           290
    x15       c34                           597
    x15       c39                           921
    x15       c40                           452
    x16       obj1                            1
    x16       c1                            257
    x16       c4                            359
    x16       c30                           320
    x16       c34                           106
    x16       c38                           842
    x17       obj1                            1
    x17       c37                           126
    x18       obj1                            1
    x18       c1                            267
    x18       c2                            375
    x18       c22                           119
    x18       c26                           756
    x19       obj1                            1
    x19       c1                            583
    x19       c2                            431
    x19       c23                           336
    x19       c35                           419
    x19       c37                           656
    x20       obj1                            1
    x20       c2                            280
    x20       c4                            957
    x20       c20                           186
    x20       c25                           216
    x20       c26                           208
    x20       c27                           811
    x20       c30                           108
    x20       c39                           486
    x21       obj1                            1
    x21       c13                           580
    x21       c14                           795
    x21       c20                           673
    x21       c23                           123
    x21       c29                           454
    x21       c31                           342
    x21       c35                           337
    x21       c38                           983
    x22       obj1                            1
    x22       c1                            354
    x22       c10                           879
    x22       c12                           330
    x22       c31                           959
    x23       obj1                            1
    x23       c14                           727
    x23       c21                           998
    x23       c35                           935
    x24       obj1                            1
    x24       c1                            269
    x24       c33                           886
    x24       c36                           792
    x25       obj1                            1
    x25       c6                            737
    x25       c7                            881
    x25       c21                           215
    x25       c24                           920
    x25       c25                           206
    x25       c37                           244
    x26       obj1                            1
    x26       c5                            261
    x26       c9                            939
    x26       c17                           292
    x26       c18                           348
    x26       c26                           463
    x27       obj1                            1
    x27       c25                           307
    x27       c26                           375
    x28       obj1                            1
    x28       c7                            539
    x28       c12                           910
    x28       c22                           797
    x28       c32                           614
    x29       obj1                            1
    x29       c2                            134
    x29       c5                            903
    x29       c13                           461
    x29       c35                           216
    x30       obj1                            1
    x30       c5                            140
    x30       c12                           397
    x30       c15                           708
    x31       obj1                            1
    x31       c2                            642
    x31       c12                           753
    x31       c31                           228
    x31       c33                           307
    x32       obj1                            1
    x32       c10                           556
    x32       c16                           208
    x33       obj1                            1
    x33       c5                            428
    x33       c15                           572
    x33       c19                           587
    x33       c28                           990
    x33       c39                           354
    x34       obj1                            1
    x34       c1                            446
    x34       c11                           192
    x35       obj1                            1
    x35       c6                            492
    x35       c7                            500
    x35       c14                           700
    x35       c17                           343
    x35       c25                           102
    x35       c28                           366
    x35       c32                           460
    x35       c34                           104
    x36       obj1                            1
    x36       c3                            969
    x36       c7                            564
    x36       c9                            984
    x36       c25                           553
    x36       c31                           877
    x36       c37                           370
    x37       obj1                            1
    x37       c3                            157
    x37       c10                           162
    x37       c12                           392
    x38       obj1                            1
    x38       c7                            355
    x38       c8                            863
    x38       c21                           236
    x38       c38                           885
    x39       obj1                            1
    x39       c10                           668
    x39       c24                           457
    x39       c28                           658
    x39       c40                           258
    x40       obj1                            1
    x40       c5                            128
    x40       c9                            138
    x40       c22                           934
    x40       c23                           863
    x41       obj1                            1
    x41       c2                            963
    x41       c10                           956
    x41       c18                           494
    x41       c21                           487
    x41       c25                           734
    x42       obj1                            1
    x42       c10                           440
    x42       c28                           432
    x42       c34                           888
    x43       obj1                            1
    x43       c3                            107
    x43       c16                           423
    x43       c35                           757
    x44       obj1                            1
    x44       c4                            859
    x44       c9                            167
    x44       c23                           698
    x45       obj1                            1
    x45       c3                            450
    x45       c9                            658
    x45       c15                           963
    x45       c16                           477
    x45       c22                           963
    x45       c28                           236
    x45       c30                           549
    x45       c36                           946
    x45       c38                           317
    x46       obj1                            1
    x46       c15                           684
    x46       c17                           815
    x46       c18                           978
    x46       c19                           310
    x47       obj1                            1
    x47       c3                            481
    x47       c20                           456
    x47       c29                           268
    x47       c30                           255
    x48       obj1                            1
    x48       c5                            729
    x48       c11                           111
    x48       c22                           571
    x48       c29                           569
    x48       c31                           866
    x49       obj1                            1
    x49       c2                            402
    x49       c5                            861
    x49       c6                            688
    x49       c19                           969
    x49       c20                           582
    x49       c22                           711
    x49       c23                           924
    x49       c38                           830
    x50       obj1                            1
    x50       c21                           728
    x50       c24                           163
    x50       c27                           667
    x50       c34                           697
    x51       obj1                            1
    x51       c1                            947
    x51       c5                            444
    x51       c20                           349
    x51       c23                           137
    x51       c31                           181
    x51       c35                           836
    x52       obj1                            1
    x52       c2                            943
    x52       c25                           726
    x52       c28                           305
    x53       obj1                            1
    x53       c5                            410
    x53       c9                            576
    x53       c12                           360
    x53       c23                           674
    x53       c24                           903
    x53       c26                           999
    x53       c30                           564
    x54       obj1                            1
    x54       c10                           317
    x54       c12                           965
    x54       c13                           358
    x54       c34                           973
    x54       c37                           415
    x55       obj1                            1
    x55       c9                            984
    x55       c16                           266
    x55       c17                           945
    x55       c24                           655
    x55       c25                           622
    x55       c37                           388
    x56       obj1                            1
    x56       c12                           825
    x56       c20                           973
    x56       c25                           488
    x56       c28                           951
    x56       c30                           995
    x57       obj1                            1
    x57       c4                            394
    x57       c16                           329
    x57       c19                           492
    x57       c28                           509
    x58       obj1                            1
    x58       c10                           621
    x58       c26                           251
    x58       c28                           760
    x58       c31                           335
    x59       obj1                            1
    x59       c3                            668
    x59       c8                            814
    x59       c12                           262
    x59       c16                           419
    x59       c18                           975
    x59       c20                           273
    x59       c26                           523
    x59       c29                           624
    x59       c31                           472
    x60       obj1                            1
    x60       c5                            781
    x60       c11                           207
    x60       c18                           519
    x60       c20                           312
    x60       c24                           580
    x60       c31                           723
    x61       obj1                            1
    x61       c3                            288
    x61       c7                            880
    x61       c16                           262
    x61       c22                           207
    x61       c29                           663
    x61       c33                           562
    x62       obj1                            1
    x62       c17                           630
    x62       c26                           842
    x62       c33                           308
    x62       c39                           370
    x63       obj1                            1
    x63       c2                            581
    x63       c4                            920
    x63       c34                           409
    x63       c37                           190
    x64       obj1                            1
    x64       c4                            691
    x64       c9                            801
    x64       c23                           882
    x64       c34                           165
    x65       obj1                            1
    x65       c13                           249
    x65       c19                           269
    x65       c29                           513
    x65       c35                           666
    x66       obj1                            1
    x66       c1                            803
    x66       c4                            847
    x66       c13                           337
    x66       c22                           254
    x66       c30                           432
    x66       c34                           489
    x67       obj1                            1
    x67       c16                           451
    x67       c21                           639
    x67       c28                           840
    x67       c32                           313
    x67       c35                           772
    x68       obj1                            1
    x69       obj1                            1
    x69       c2                            258
    x69       c4                            168
    x69       c17                           281
    x70       obj1                            1
    x70       c11                           358
    x70       c27                           694
    x70       c34                           535
    x70       c36                           822
    x71       obj1                            1
    x71       c9                            131
    x71       c22                           115
    x71       c36                           659
    x72       obj1                            1
    x72       c11                           407
    x72       c14                           724
    x72       c16                           470
    x72       c24                           571
    x72       c26                           148
    x72       c36                           299
    x73       obj1                            1
    x73       c17                           740
    x73       c21                           430
    x73       c30                           858
    x73       c32                           584
    x74       obj1                            1
    x74       c8                            797
    x74       c20                           841
    x74       c26                           267
    x74       c27                           775
    x74       c36                           590
    x74       c37                           120
    x75       obj1                            1
    x75       c15                           593
    x75       c30                           687
    x75       c32                           259
    x76       obj1                            1
    x77       obj1                            1
    x77       c4                            167
    x77       c18                           304
    x77       c19                           881
    x77       c21                           363
    x77       c30                           219
    x78       obj1                            1
    x78       c17                           278
    x78       c25                           212
    x78       c26                           308
    x78       c27                           257
    x78       c36                           218
    x78       c38                           311
    x79       obj1                            1
    x79       c4                            876
    x79       c16                           218
    x79       c20                           983
    x79       c21                           711
    x79       c31                           745
    x80       obj1                            1
    x80       c6                            649
    x80       c19                           509
    x80       c29                           187
    x80       c33                           236
    x80       c37                           832
    x80       c40                           588
    MARK0001  'MARKER'                 'INTEND'
RHS
    rhs       c1                           2905
    rhs       c2                           3296
    rhs       c3                           1560
    rhs       c4                           3299
    rhs       c5                           2891
    rhs       c6                           1488
    rhs       c7                           2177
    rhs       c8                           1630
    rhs       c9                           3009
    rhs       c10                          2705
    rhs       c11                           846
    rhs       c12                          2854
    rhs       c13                          1436
    rhs       c14                          1867
    rhs       c15                          2139
    rhs       c16                          1994
    rhs       c17                          2339
    rhs       c18                          2496
    rhs       c19                          2907
    rhs       c20                          3217
    rhs       c21                          2963
    rhs       c22                          3402
    rhs       c23                          2803
    rhs       c24                          2719
    rhs       c25                          2415
    rhs       c26                          2744
    rhs       c27                          2166
    rhs       c28                          3273
    rhs       c29                          2329
    rhs       c30                          2943
    rhs       c31                          3257
    rhs       c32                          1475
    rhs       c33                          2533
    rhs       c34                          2596
    rhs       c35                          3236
    rhs       c36                          3440
    rhs       c37                          2788
    rhs       c38                          2084
    rhs       c39                          1066
    rhs       c40                           996
BOUNDS
 LI bnd       x1        0
 LI bnd       x2        0
 LI bnd       x3        0
 LI bnd       x4        0
 LI bnd       x5        0
 LI bnd       x6        0
 LI bnd       x7        0
 LI bnd       x8        0
 LI bnd       x9        0
 LI bnd       x10       0
 LI bnd       x11       0
 LI bnd       x12       0
 LI bnd       x13       0
 LI bnd       x14       0
 LI bnd       x15       0
 LI bnd       x16       0
 LI bnd       x17       0
 LI bnd       x18       0
 LI bnd       x19       0
 LI bnd       x20       0
 LI bnd       x21       0
 LI bnd       x22       0
 LI bnd       x23       0
 LI bnd       x24       0
 LI bnd       x25       0
 LI bnd       x26       0
 LI bnd       x27       0
 LI bnd       x28       0
 LI bnd       x29       0
 LI bnd       x30       0
 LI bnd       x31       0
 LI bnd       x32       0
 LI bnd       x33       0
 LI bnd       x34       0
 LI bnd       x35       0
 LI bnd       x36       0
 LI bnd       x37       0
 LI bnd       x38       0
 LI bnd       x39       0
 LI bnd       x40       0
 LI bnd       x41       0
 LI bnd       x42       0
 LI bnd       x43       0
 LI bnd       x44       0
 LI bnd       x45       0
 LI bnd       x46       0
 LI bnd       x47       0
 LI bnd       x48       0
 LI bnd       x49       0
 LI bnd       x50       0
 LI bnd       x51       0
 LI bnd       x52       0
 LI bnd       x53       0
 LI bnd       x54       0
 LI bnd       x55       0
 LI bnd       x56       0
 LI bnd       x57       0
 LI bnd       x58       0
 LI bnd       x59       0
 LI bnd       x60       0
 LI bnd       x61       0
 LI bnd       x62       0
 LI bnd       x63       0
 LI bnd       x64       0
 LI bnd       x65       0
 LI bnd       x66       0
 LI bnd       x67       0
 LI bnd       x68       0
 LI bnd       x69       0
 LI bnd       x70       0
 LI bnd       x71       0
 LI bnd       x72       0
 LI bnd       x73       0
 LI bnd       x74       0
 LI bnd       x75       0
 LI bnd       x76       0
 LI bnd       x77       0
 LI bnd       x78       0
 LI bnd       x79       0
 LI bnd       x80       0
ENDATA
